PARAMETER_FILE = even/even_complete_graph_new/par/random67.par
PROBLEM_FILE = even/even_complete_graph_new/mat/random67.tsp
Successes/Runs = 0/10
Cost.min = 663, Cost.avg = 663.00, Cost.max = 663
Gap.min = 0.0000%, Gap.avg = 0.0000%, Gap.max = 0.0000%
Trials.min = 1000, Trials.avg = 1000.0, Trials.max = 1000
Time.min = 0.05 sec., Time.avg = 0.06 sec., Time.max = 0.08 sec.
Time.total = 0.68 sec.
